param number :=10;
param r:=
1 8
2 0
3 2
4 14
5 12
6 4
7 20
8 22
9 18
10 15;
param due:=
1 50
2 53
3 55
4 56
5 59
6 60
7 62                                                                
8 67
9 68
10 70;                                              
param process:=
1 6
2 9
3 3
4 5
5 10
6 6
7 3
8 9
9 7
10 10;